50
    53    53   100    67    66    16    25    95    47   100    69    30    26    39    29    41    94    59    18    34    10    74    66    59    99    92    17     5    51     9    32     1    21    13    86    18    31    82    71    67    66    85    94   100    80    82    77     9    91    22
    10    10     9     9     5     6     1     8    10     5     7     8     7     7     9     9     5     7     3    10     6     8     3     4    10    10     4     7     8    10     8     4     9     3    10     6     2     1     1     4     7     1     7     1     3    10     7     4     8     1
  1171  1172   808  1543  1411   579  1018  1023  1553   895   805  1475   569  1414  1442  1430  1111   863   765   965  1271  1498  1200  1273   754   940  1271  1564  1175   541  1494   758  1559  1486  1210   793   774  1422  1290   853  1568  1229   964   671  1261   585  1590  1161  1123  1532
